# Objective value = 1.9337659157857738e+03
x[0] 0
x[1] 0
x[2] 0
x[3] 1
x[4] 1
x[5] 1
x[6] 1
x[7] 1
x[8] 1
x[9] 1
x[10] 1
x[11] 1
x[12] 0
x[13] 1
x[14] 1
x[15] 1
x[16] 1
x[17] 1
x[18] 0
x[19] 0
x[20] 1
x[21] 0
x[22] 1
x[23] 1
x[24] 0
x[25] 0
x[26] 0
x[27] 0
x[28] 0
x[29] 1
x[30] 1
x[31] 1
x[32] 0
x[33] 1
x[34] 1
x[35] 1
x[36] 1
x[37] 0
x[38] 0
x[39] 0
x[40] 0
x[41] 0
x[42] 1
x[43] 0
x[44] 0
x[45] 1
x[46] 1
x[47] 1
x[48] 1
x[49] 0
x[50] 0
x[51] 0
x[52] 1
x[53] 0
x[54] 0
x[55] 1
x[56] 0
x[57] 0
x[58] 1
x[59] 1
x[60] 0
x[61] 0
x[62] 0
x[63] 1
x[64] 1
x[65] 1
x[66] 0
x[67] 1
x[68] 1
x[69] 1
x[70] 0
x[71] 0
x[72] 1
x[73] 0
x[74] 0
x[75] 1
x[76] 0
x[77] 1
x[78] 0
x[79] 1
x[80] 0
x[81] 0
x[82] 0
x[83] 1
x[84] 1
x[85] 0
x[86] 1
x[87] 1
x[88] 1
x[89] 1
x[90] 0
x[91] 1
x[92] 1
x[93] 0
x[94] 1
x[95] 0
x[96] 1
x[97] 0
x[98] 0
x[99] 1
x[100] 1
x[101] 1
x[102] 1
x[103] 0
x[104] 1
x[105] 1
x[106] 1
x[107] 1
x[108] 1
x[109] 1
x[110] 1
x[111] 0
x[112] 0
x[113] 0
x[114] 0
x[115] 0
x[116] 1
x[117] 1
x[118] 1
x[119] 1
x[120] 1
x[121] 1
x[122] 0
x[123] 1
x[124] 0
x[125] 0
x[126] 1
x[127] 0
x[128] 0
x[129] 1
x[130] 0
x[131] 0
x[132] 1
x[133] 1
x[134] 0
x[135] 0
x[136] 1
x[137] 1
x[138] 0
x[139] 1
x[140] 1
x[141] 1
x[142] 1
x[143] 1
x[144] 1
x[145] 0
x[146] 0
x[147] 1
x[148] 1
x[149] 1
x[150] 0
x[151] 0
x[152] 0
x[153] 1
x[154] 1
x[155] 0
x[156] 1
x[157] 0
x[158] 0
x[159] 0
x[160] 0
x[161] 0
x[162] 0
x[163] 0
x[164] 0
x[165] 1
x[166] 0
x[167] 1
x[168] 1
x[169] 1
x[170] 1
x[171] 0
x[172] 1
x[173] 0
x[174] 1
x[175] 1
x[176] 1
x[177] 0
x[178] 1
x[179] 1
x[180] 1
x[181] 1
x[182] 0
x[183] 0
x[184] 0
x[185] 1
x[186] 0
x[187] 1
x[188] 0
x[189] 1
x[190] 0
x[191] 0
x[192] 0
x[193] 1
x[194] 1
x[195] 0
x[196] 1
x[197] 0
x[198] 1
x[199] 0
x[200] 1
x[201] 1
x[202] 1
x[203] 0
x[204] 1
x[205] 1
x[206] 0
x[207] 0
x[208] 1
x[209] 0
x[210] 1
x[211] 1
x[212] 1
x[213] 1
x[214] 0
x[215] 1
x[216] 1
x[217] 0
x[218] 0
x[219] 1
x[220] 1
x[221] 0
x[222] 0
x[223] 0
x[224] 1
x[225] 0
x[226] 1
x[227] 1
x[228] 0
x[229] 1
x[230] 1
x[231] 1
x[232] 0
x[233] 1
x[234] 1
x[235] 1
x[236] 1
x[237] 0
x[238] 1
x[239] 1
x[240] 1
x[241] 1
x[242] 1
x[243] 0
x[244] 1
x[245] 1
x[246] 1
x[247] 1
x[248] 0
x[249] 1
x[250] 0
x[251] 1
x[252] 1
x[253] 0
x[254] 0
x[255] 1
x[256] 1
x[257] 0
x[258] 0
x[259] 0
x[260] 0
x[261] 1
x[262] 1
x[263] 1
x[264] 0
x[265] 1
x[266] 0
x[267] 1
x[268] 1
x[269] 1
x[270] 0
x[271] 0
x[272] 0
x[273] 1
x[274] 1
x[275] 1
x[276] 0
x[277] 0
x[278] 1
x[279] 0
x[280] 1
x[281] 1
x[282] 1
x[283] 0
x[284] 0
x[285] 1
x[286] 0
x[287] 0
x[288] 1
x[289] 0
x[290] 1
x[291] 0
x[292] 0
x[293] 0
x[294] 0
x[295] 1
x[296] 0
x[297] 1
x[298] 1
x[299] 1
x[300] 0
x[301] 1
x[302] 0
x[303] 0
x[304] 1
x[305] 1
x[306] 0
x[307] 1
x[308] 1
x[309] 1
x[310] 1
x[311] 0
x[312] 0
x[313] 0
x[314] 0
x[315] 1
x[316] 0
x[317] 0
x[318] 1
x[319] 1
x[320] 0
x[321] 0
x[322] 0
x[323] 0
x[324] 1
x[325] 1
x[326] 1
x[327] 1
x[328] 1
x[329] 0
x[330] 0
x[331] 1
x[332] 0
x[333] 1
x[334] 1
x[335] 0
x[336] 1
x[337] 0
x[338] 1
x[339] 1
x[340] 1
x[341] 0
x[342] 0
x[343] 0
x[344] 1
x[345] 1
x[346] 0
x[347] 1
x[348] 1
x[349] 1
x[350] 1
x[351] 0
x[352] 1
x[353] 1
x[354] 0
x[355] 0
x[356] 1
x[357] 0
x[358] 1
x[359] 1
x[360] 1
x[361] 1
x[362] 1
x[363] 0
x[364] 1
x[365] 1
x[366] 0
x[367] 1
x[368] 1
x[369] 0
x[370] 1
x[371] 1
x[372] 1
x[373] 1
x[374] 0
x[375] 1
x[376] 0
x[377] 1
x[378] 1
x[379] 0
x[380] 0
x[381] 1
x[382] 1
x[383] 1
x[384] 1
x[385] 1
x[386] 1
x[387] 1
x[388] 0
x[389] 0
x[390] 1
x[391] 1
x[392] 0
x[393] 0
x[394] 0
x[395] 0
x[396] 1
x[397] 1
x[398] 0
x[399] 1
x[400] 1
x[401] 1
x[402] 0
x[403] 0
x[404] 1
x[405] 1
x[406] 1
x[407] 0
x[408] 0
x[409] 1
x[410] 1
x[411] 1
x[412] 1
x[413] 1
x[414] 0
x[415] 1
x[416] 1
x[417] 1
x[418] 1
x[419] 1
x[420] 1
x[421] 1
x[422] 1
x[423] 0
x[424] 1
x[425] 0
x[426] 1
x[427] 1
x[428] 0
x[429] 1
x[430] 1
x[431] 1
x[432] 0
x[433] 1
x[434] 0
x[435] 0
x[436] 0
x[437] 1
x[438] 1
x[439] 1
x[440] 1
x[441] 1
x[442] 1
x[443] 0
x[444] 1
x[445] 0
x[446] 0
x[447] 1
x[448] 1
x[449] 1
x[450] 1
x[451] 1
x[452] 0
x[453] 0
x[454] 0
x[455] 0
x[456] 1
x[457] 0
x[458] 1
x[459] 1
x[460] 1
x[461] 0
x[462] 1
x[463] 1
x[464] 1
x[465] 1
x[466] 1
x[467] 1
x[468] 0
x[469] 0
x[470] 0
x[471] 0
x[472] 1
x[473] 1
x[474] 0
x[475] 1
x[476] 1
x[477] 1
x[478] 1
x[479] 0
x[480] 0
x[481] 0
x[482] 1
x[483] 1
x[484] 1
x[485] 0
x[486] 0
x[487] 0
x[488] 1
x[489] 1
x[490] 0
x[491] 1
x[492] 1
x[493] 1
x[494] 0
x[495] 0
x[496] 1
x[497] 1
x[498] 0
x[499] 0
x[500] 1
x[501] 1
x[502] 0
x[503] 0
x[504] 1
x[505] 0
x[506] 1
x[507] 0
x[508] 0
x[509] 1
x[510] 1
x[511] 0
x[512] 1
x[513] 0
x[514] 1
x[515] 0
x[516] 0
x[517] 0
x[518] 0
x[519] 1
x[520] 1
x[521] 1
x[522] 0
x[523] 1
x[524] 0
x[525] 0
x[526] 1
x[527] 1
x[528] 1
x[529] 1
x[530] 0
x[531] 1
x[532] 0
x[533] 1
x[534] 1
x[535] 1
x[536] 1
x[537] 0
x[538] 0
x[539] 1
x[540] 1
x[541] 0
x[542] 0
x[543] 1
x[544] 0
x[545] 0
x[546] 0
x[547] 0
x[548] 1
x[549] 0
x[550] 1
x[551] 1
x[552] 0
x[553] 0
x[554] 0
x[555] 1
x[556] 1
x[557] 0
x[558] 1
x[559] 1
x[560] 0
x[561] 0
x[562] 0
x[563] 1
x[564] 1
x[565] 0
x[566] 0
x[567] 0
x[568] 1
x[569] 1
x[570] 1
x[571] 0
x[572] 1
x[573] 0
x[574] 0
x[575] 1
x[576] 0
x[577] 0
x[578] 0
x[579] 0
x[580] 1
x[581] 0
x[582] 1
x[583] 1
x[584] 1
x[585] 1
x[586] 1
x[587] 0
x[588] 1
x[589] 0
x[590] 1
x[591] 0
x[592] 0
x[593] 1
x[594] 0
x[595] 1
x[596] 0
x[597] 1
x[598] 1
x[599] 0
x[600] 0
x[601] 1
x[602] 1
x[603] 1
x[604] 1
x[605] 1
x[606] 1
x[607] 1
x[608] 1
x[609] 0
x[610] 1
x[611] 1
x[612] 1
x[613] 1
x[614] 0
x[615] 0
x[616] 1
x[617] 1
x[618] 1
x[619] 1
x[620] 0
x[621] 0
x[622] 0
x[623] 1
x[624] 0
x[625] 1
x[626] 0
x[627] 0
x[628] 1
x[629] 0
x[630] 1
x[631] 1
x[632] 0
x[633] 1
x[634] 1
x[635] 0
x[636] 1
x[637] 0
x[638] 1
x[639] 0
x[640] 1
x[641] 0
x[642] 1
x[643] 1
x[644] 1
x[645] 1
x[646] 0
x[647] 1
x[648] 1
x[649] 1
x[650] 0
x[651] 1
x[652] 1
x[653] 0
x[654] 0
x[655] 1
x[656] 0
x[657] 0
x[658] 1
x[659] 1
x[660] 1
x[661] 1
x[662] 0
x[663] 0
x[664] 1
x[665] 1
x[666] 0
x[667] 1
x[668] 1
x[669] 1
x[670] 1
x[671] 1
x[672] 0
x[673] 0
x[674] 0
x[675] 0
x[676] 0
x[677] 0
x[678] 1
x[679] 0
x[680] 0
x[681] 0
x[682] 1
x[683] 1
x[684] 0
x[685] 1
x[686] 1
x[687] 1
x[688] 1
x[689] 0
x[690] 1
x[691] 1
x[692] 1
x[693] 0
x[694] 1
x[695] 1
x[696] 1
x[697] 1
x[698] 1
x[699] 0
x[700] 0
x[701] 0
x[702] 1
x[703] 0
x[704] 0
x[705] 1
x[706] 1
x[707] 1
x[708] 0
x[709] 1
x[710] 1
x[711] 1
x[712] 1
x[713] 1
x[714] 0
x[715] 1
x[716] 1
x[717] 1
x[718] 0
x[719] 1
x[720] 1
x[721] 1
x[722] 0
x[723] 0
x[724] 1
x[725] 0
x[726] 1
x[727] 0
x[728] 0
x[729] 1
x[730] 1
x[731] 0
x[732] 1
x[733] 1
x[734] 1
x[735] 1
x[736] 1
x[737] 1
x[738] 1
x[739] 0
x[740] 0
x[741] 1
x[742] 0
x[743] 1
x[744] 0
x[745] 1
x[746] 1
x[747] 1
x[748] 0
x[749] 0
x[750] 1
x[751] 1
x[752] 0
x[753] 1
x[754] 0
x[755] 0
x[756] 1
x[757] 1
x[758] 0
x[759] 0
x[760] 0
x[761] 1
x[762] 1
x[763] 0
x[764] 1
x[765] 0
x[766] 0
x[767] 1
x[768] 0
x[769] 0
x[770] 0
x[771] 0
x[772] 0
x[773] 0
x[774] 1
x[775] 0
x[776] 1
x[777] 0
x[778] 0
x[779] 1
x[780] 0
x[781] 0
x[782] 0
x[783] 1
x[784] 0
x[785] 1
x[786] 0
x[787] 0
x[788] 1
x[789] 0
x[790] 0
x[791] 1
x[792] 1
x[793] 1
x[794] 0
x[795] 0
x[796] 1
x[797] 0
x[798] 1
x[799] 1
x[800] 1
x[801] 0
x[802] 0
x[803] 0
x[804] 0
x[805] 1
x[806] 1
x[807] 0
x[808] 0
x[809] 1
x[810] 1
x[811] 1
x[812] 1
x[813] 0
x[814] 0
x[815] 1
x[816] 1
x[817] 0
x[818] 0
x[819] 0
x[820] 1
x[821] 0
x[822] 1
x[823] 1
x[824] 1
x[825] 1
x[826] 0
x[827] 1
x[828] 1
x[829] 0
x[830] 0
x[831] 1
x[832] 1
x[833] 0
x[834] 1
x[835] 1
x[836] 1
x[837] 1
x[838] 1
x[839] 1
x[840] 1
x[841] 0
x[842] 0
x[843] 1
x[844] 0
x[845] 0
x[846] 1
x[847] 1
x[848] 1
x[849] 0
x[850] 1
x[851] 1
x[852] 0
x[853] 1
x[854] 1
x[855] 0
x[856] 1
x[857] 1
x[858] 1
x[859] 1
x[860] 0
x[861] 1
x[862] 0
x[863] 1
x[864] 1
x[865] 0
x[866] 0
x[867] 0
x[868] 0
x[869] 1
x[870] 1
x[871] 0
x[872] 1
x[873] 0
x[874] 0
x[875] 0
x[876] 1
x[877] 0
x[878] 0
x[879] 0
x[880] 1
x[881] 1
x[882] 1
x[883] 1
x[884] 0
x[885] 1
x[886] 1
x[887] 0
x[888] 0
x[889] 1
x[890] 1
x[891] 1
x[892] 1
x[893] 0
x[894] 0
x[895] 0
x[896] 0
x[897] 0
x[898] 0
x[899] 1
x[900] 1
x[901] 1
x[902] 1
x[903] 0
x[904] 0
x[905] 0
x[906] 1
x[907] 0
x[908] 1
x[909] 0
x[910] 0
x[911] 1
x[912] 1
x[913] 1
x[914] 1
x[915] 1
x[916] 0
x[917] 1
x[918] 0
x[919] 0
x[920] 1
x[921] 0
x[922] 1
x[923] 1
x[924] 0
x[925] 0
x[926] 0
x[927] 1
x[928] 0
x[929] 0
x[930] 0
x[931] 1
x[932] 1
x[933] 1
x[934] 1
x[935] 1
x[936] 0
x[937] 0
x[938] 0
x[939] 0
x[940] 1
x[941] 1
x[942] 0
x[943] 0
x[944] 1
x[945] 1
x[946] 0
x[947] 1
x[948] 1
x[949] 1
x[950] 1
x[951] 1
x[952] 0
x[953] 0
x[954] 0
x[955] 0
x[956] 1
x[957] 0
x[958] 1
x[959] 0
x[960] 0
x[961] 1
x[962] 1
x[963] 1
x[964] 1
x[965] 1
x[966] 0
x[967] 0
x[968] 1
x[969] 1
x[970] 1
x[971] 1
x[972] 0
x[973] 0
x[974] 1
x[975] 1
x[976] 0
x[977] 1
x[978] 1
x[979] 0
x[980] 0
x[981] 1
x[982] 0
x[983] 1
x[984] 1
x[985] 1
x[986] 1
x[987] 0
x[988] 1
x[989] 1
x[990] 1
x[991] 0
x[992] 0
x[993] 0
x[994] 0
x[995] 0
x[996] 1
x[997] 1
x[998] 1
x[999] 0
